p cnf 100 40
x 1 -2 3 -5 -9 11 -12 14 15 16 -18 -21 23 -25 27 -29 -30 -32 34 35 36 37 38 -41 42 43 -44 50 -53 -54 60 62 -63 -66 -67 -70 71 -74 76 77 78 79 85 -86 87 -90 91 -92 93 -94 -96 -97 98 99 100 0
x -3 4 -5 -6 -7 11 -12 -14 17 18 -19 22 -25 26 33 -34 38 -39 41 -44 -48 -49 -50 52 53 -54 55 57 -65 -66 68 -69 73 79 83 84 -85 -88 -89 91 93 96 -97 98 99 -100 0
x 2 3 5 8 -10 -12 -14 -18 19 -21 -23 -24 -25 26 -29 -33 -34 -35 36 -37 -38 -44 45 -47 -48 -53 -55 -56 62 -64 65 67 -68 70 -73 76 -77 -79 80 83 -86 -87 92 94 96 97 0
x 1 3 6 8 9 -11 -14 -15 -16 17 18 -19 20 -21 23 -24 26 28 -29 32 33 -35 37 -40 43 -46 -50 -53 58 -59 -61 65 67 -68 -69 73 -76 -77 -78 81 82 83 84 85 89 -91 -92 93 95 -96 -97 -100 0
x 3 4 -5 6 8 13 14 15 20 22 -24 -26 27 28 29 -30 32 -33 35 -36 -37 -38 41 42 43 44 45 46 48 -53 54 -55 -56 57 -58 -59 60 -62 63 66 -67 -71 -73 74 -75 79 -81 -82 -84 -85 86 88 92 -97 98 0
x 1 2 -5 -8 11 -13 -14 16 -18 -20 21 -24 25 28 29 30 -34 37 41 42 -44 -46 47 -49 56 57 -58 -60 -63 -66 -68 70 -76 -77 79 80 -83 85 88 -94 98 99 0
x 4 -5 -6 12 -13 16 -17 18 19 20 -23 24 25 26 -27 -30 -31 -34 -38 39 -40 -41 -42 -44 50 53 55 56 57 58 59 65 -66 -67 -68 70 -71 -76 78 -79 -80 82 84 85 -87 -89 90 -91 99 0
x 2 3 -6 -7 8 10 -11 12 -13 18 -19 -21 22 -23 24 25 29 34 -35 42 -45 47 49 -59 -63 -64 -67 -72 74 75 -78 79 -82 89 90 -92 -93 94 -98 0
x -2 -4 -6 -11 12 -14 -15 -17 24 -25 -27 29 30 31 -32 33 -34 -35 37 38 41 -45 46 -48 -49 52 -54 -55 56 -57 -58 -60 61 65 67 -69 72 -73 74 -78 -79 -80 81 -82 -84 89 -90 94 98 99 -100 0
x 1 2 7 -8 -9 10 -11 13 -15 -16 -17 18 -23 27 -32 34 35 40 42 -43 -44 45 -53 55 -56 -58 61 62 63 64 -66 70 -71 -73 -74 79 -81 84 -86 89 90 -92 -94 -95 -96 -97 100 0
x -4 5 7 9 -10 -11 13 17 20 -22 23 -24 -27 29 30 -31 -33 37 40 -45 46 49 50 -53 54 -55 57 60 61 -63 64 -67 68 69 -70 71 72 -74 -76 -79 80 82 -83 84 85 87 -89 -90 91 -95 -98 -99 0
x 1 2 3 -6 9 -10 -11 -12 -14 -17 -23 25 -26 30 32 33 -35 37 -38 -39 40 43 45 47 -51 -52 -53 54 -55 -56 -57 60 63 -64 66 71 73 -74 78 80 81 82 83 84 -85 -86 -88 -91 -92 96 -97 98 0
x -2 3 5 7 -9 -11 -12 -14 -15 -17 21 22 -23 24 -26 -28 -30 31 33 -35 37 -38 -40 -46 -51 -52 53 -55 -56 -57 60 63 -67 70 71 74 -75 -80 -81 82 83 -89 -91 -93 97 -99 100 0
x -2 -6 7 -8 9 -10 11 13 -17 -21 -22 -25 -26 28 -30 33 -37 38 -39 -42 -43 44 48 -50 52 54 55 57 58 59 62 63 -67 70 71 75 76 -77 79 -84 -88 -89 91 96 97 -98 -99 -100 0
x -1 -3 4 -5 6 -9 13 14 -15 -16 23 -24 -26 28 -31 -32 -34 38 39 -40 44 45 49 -51 52 55 -59 65 66 -67 -70 73 74 -75 77 79 80 81 -83 -85 -86 87 88 -89 -90 -91 94 95 97 -98 -100 0
x 1 -2 -3 4 5 -6 8 11 -12 -14 -15 -19 20 -22 -23 -28 -29 30 -31 -32 -33 -34 35 -42 45 -46 -47 -48 50 -51 54 -56 57 -59 -60 -61 64 65 66 71 -72 73 -74 -78 -80 81 -83 -85 -87 -88 -92 93 97 -98 -99 0
x -2 3 -4 6 11 -13 14 -16 -17 -18 22 -25 -27 -28 -30 -31 33 36 37 -42 44 46 -48 49 -51 -52 54 -56 -63 64 66 -70 -72 -76 77 79 -80 81 83 84 87 88 -90 -91 93 94 97 100 0
x -3 -5 -6 7 8 9 10 -11 -12 -18 -23 25 26 27 -29 30 -31 33 -37 -39 40 42 45 48 51 -53 -60 -61 -63 65 67 68 69 70 -71 -72 73 74 -75 -78 -79 80 -82 84 -85 89 91 -92 -96 97 -98 0
x -1 4 7 8 9 11 14 -15 17 -18 -21 -22 -23 -24 -26 -27 28 29 31 -34 -35 -36 -37 -38 41 -44 46 47 48 -49 51 53 54 59 60 61 62 63 67 68 71 72 76 83 -84 -87 88 -93 -94 96 98 -99 0
x 3 6 -8 10 11 -13 -16 -18 24 33 40 -41 42 -43 -44 -47 -49 -50 -51 -54 -56 58 -59 -62 -67 69 71 -73 -74 76 77 -78 -79 80 -83 -87 -88 -89 90 -91 -93 -95 0
x -3 4 -5 6 7 -8 -10 -11 -12 13 -15 -16 19 21 22 25 26 27 28 29 35 -36 -39 42 43 44 46 -47 -48 -49 -55 -58 59 60 61 -62 -63 -64 66 -69 76 -77 79 -80 -83 84 -85 87 88 -89 90 -91 93 94 -95 99 0
x -2 -3 -4 5 -6 -9 10 11 -12 13 17 19 -20 -21 -26 -27 28 -29 -30 -31 33 34 36 39 -41 43 44 -45 47 -48 -49 50 52 53 55 -56 58 59 -60 -61 -63 66 -68 69 70 -72 -75 -76 77 90 92 93 94 96 -98 0
x -1 -3 7 -8 -9 15 16 20 -23 25 -28 29 -33 36 -37 -38 43 44 -46 47 50 -51 53 55 -57 -58 59 -61 -62 -63 -66 67 -68 69 73 -74 77 78 79 -85 -87 88 -89 92 95 97 -100 0
x 2 4 -5 -7 -9 10 15 16 -17 21 23 25 26 27 -29 30 33 -37 45 -46 -48 -50 55 -56 -57 58 61 62 64 -66 -67 -69 -70 75 -76 79 -80 84 88 -89 -92 94 -95 -96 99 -100 0
x 2 -3 -6 7 -9 10 12 15 17 -18 21 -23 24 -25 -26 27 30 -32 -33 34 35 -37 -39 42 43 -44 45 47 48 50 51 -54 -55 -58 -59 62 -63 -65 -68 -69 72 -73 -75 -81 82 -83 85 -86 -89 -90 -94 96 97 -98 0
x -1 4 -6 8 9 -11 -12 13 16 -17 -18 -20 -21 22 -23 24 25 -26 31 -34 36 39 40 43 -47 -49 -50 51 56 -59 60 -66 -67 70 -75 77 -79 -81 82 -83 -86 -87 89 90 -93 -94 96 97 -99 0
x -3 5 -6 10 -13 14 -17 18 20 -21 -23 -24 -25 27 28 29 33 34 38 39 -41 43 -47 49 50 51 52 53 58 59 -61 -64 -67 70 -72 73 74 75 -77 -78 82 84 -85 -86 -89 90 95 97 -99 0
x -2 -3 4 6 -8 -11 12 -16 -18 -19 21 23 -25 -26 -27 29 -30 -31 -32 34 -38 41 -42 43 46 48 -50 52 53 -54 55 61 -62 63 -65 -70 -71 73 -74 -75 -80 -82 86 -88 -89 91 92 93 95 96 -100 0
x 1 -2 3 -4 -13 14 -16 17 22 -25 -26 -27 29 -30 -36 37 40 41 -43 -44 -45 -46 47 48 52 -54 -55 57 -60 62 63 -65 70 73 74 -76 77 -78 -79 81 82 -83 -84 85 86 -87 90 -92 94 -95 0
x 2 -3 4 6 -8 -10 11 12 -14 -15 16 18 -19 24 -26 -28 29 -30 -33 -34 36 40 -41 42 -43 -47 48 -49 50 55 56 59 -62 65 -66 67 68 -69 70 71 -72 -73 75 76 79 -80 81 -82 85 87 -90 93 94 -96 -97 -98 -99 -100 0
x -1 4 5 6 -7 -8 -10 11 12 14 16 17 18 -20 21 22 23 -29 30 31 -34 -37 -38 39 -40 43 45 -48 -49 -50 51 52 -54 -55 -57 58 59 61 -62 -63 65 67 68 -69 -71 78 -79 81 83 87 88 -89 -90 -92 -95 97 0
x 1 2 -5 6 -8 10 11 12 13 14 15 -16 -17 21 22 -23 24 -26 30 31 -35 36 37 38 -39 42 -47 -50 52 -53 -54 57 58 60 64 -65 68 70 71 -72 -73 -74 -75 -76 -77 -78 -81 82 83 85 -86 -87 -88 90 -91 -93 95 98 99 0
x 1 2 8 -9 -10 13 -14 15 16 18 19 24 25 -26 28 -31 32 -33 34 38 40 41 -44 46 49 -50 -51 52 -55 -56 -59 -60 61 64 65 -67 68 69 -71 -73 -78 79 81 82 -83 85 -86 87 -89 -90 91 -93 95 -96 99 -100 0
x 5 7 -8 -10 12 14 -18 20 21 22 24 -25 -27 -30 31 -32 33 35 37 38 41 43 -45 46 -49 53 56 59 -61 -63 -64 -67 -69 72 -75 -77 -78 -79 -81 -83 -85 -87 -91 92 96 -99 0
x 2 -4 5 -7 -8 -9 14 16 17 -21 -22 23 28 -29 31 33 -34 -35 -37 -38 -40 41 44 45 -46 47 -49 50 53 55 -56 -57 59 -60 -62 -64 -65 -66 -69 72 78 -79 -81 -82 -83 -84 86 91 -92 -94 96 -99 0
x 3 4 -5 6 -9 -10 12 13 -14 19 -21 23 -24 -25 -29 32 33 -35 -39 -40 44 -46 -53 55 57 59 60 64 -67 -68 73 -76 -77 79 80 -84 -87 89 90 91 -95 -96 98 0
x 2 -3 -4 5 -7 8 10 11 13 14 -15 -16 18 -19 20 21 26 27 -29 -31 32 -37 -38 39 -40 -46 -51 52 54 55 -57 58 59 -62 -63 64 67 -69 71 72 -73 77 80 -84 85 -91 -92 93 -95 97 98 -100 0
x -1 7 9 13 -15 18 -20 -24 25 -27 28 -31 -32 33 -34 35 39 40 -41 42 -43 44 45 47 -51 52 53 55 59 62 -63 64 -65 -67 -68 -71 73 75 77 -79 83 84 85 86 87 89 -91 -92 -94 96 -98 -99 100 0
x 5 -6 -7 -9 10 -11 -12 17 18 20 -21 22 -23 24 -26 27 -28 29 -33 -35 -36 -38 -40 41 -42 43 -44 -45 -48 50 51 53 -54 -56 -57 59 -62 -63 65 -66 71 74 76 -77 80 85 -86 -92 93 94 95 98 0
x 5 -6 -9 10 -11 15 -17 -20 24 25 27 28 30 31 32 -35 36 -38 40 42 -43 44 -48 52 -53 54 59 -68 69 -70 71 -73 -75 -76 77 81 -87 -88 89 -91 -93 -97 -98 -99 100 0
g -30